Mack/Bortfeldt(2008)
Bin-Packing-Problem
BP-RG/SBSBPP/SSSCSP
Testcase-ID	9
Problem-ID	5
no_item_types	3
no_items	1507
CONTAINER_DATA (l,w,h)	432	79	1
ITEMS_DATA:
Type	x	y	z	no_items
1	43	38	1	512
2	27	19	1	502
3	27	18	1	493
